300
[60,61,62,63,64,65,66,67,68,69,70,71,72,73,74,75,76,77,78,79,80,81,82,83,84,85,86,87,88,89,90,91,92,93,94,95,96,97,98,99,100,101,102,103,104,105,106,107,108,109,110,111,112,113,114,115,116,117,118,119,120,121,122,123,124,125,126,127,128,129,130,131,132,133,134,135,137,138,139,140,141,142,143,144,145,146,147,148,149,150,151,152,153,154,155,156,157,158,159,160,161,162,163,164,165,166,167,168,169,170,171,172,173,174,175,176,177,178,179,180,181,182,183,184,185,186,187,188,189,190,191,192,193,194,195,196,197,198,199,200,201,202,203,204,205,206,207,208,209,210]
[3,7,11,6,7,15,15,3,7,4,4,12,14,3,4,6,5,10,10,7,6,9,8,9,8,7,7,3,5,6,3,8,4,3,4,8,4,8,6,6,9,12,3,7,4,4,6,3,6,6,9,7,3,2,7,4,5,7,6,8,10,4,6,6,6,6,8,3,2,5,6,12,1,7,2,5,5,9,7,10,10,6,8,5,7,5,7,10,7,16,6,6,10,7,3,6,9,7,5,6,12,8,2,4,6,6,3,5,8,9,9,7,8,10,6,9,4,6,9,10,11,4,8,4,4,4,13,6,8,6,4,11,7,6,9,8,8,4,8,8,5,9,5,7,2,6,3,7,4,11]
